NAME : morphed22-5-30
COMMENT : Generated using the function morphInstances from the R-package netgen (Bossek,2015) - Number of clusters: 5 Alpha: 0.5
TYPE : TSP
DIMENSION : 22
EDGE_WEIGHT_TYPE : EUC_2D
NODE_COORD_SECTION
1 14.2040248769 9.9213258324
2 63.7602909814 43.6113992838
3 45.158243841 20.9048076024
4 52.748560454 24.2996147113
5 23.6099165207 71.2611519463
6 15.1421643636 26.6195282803
7 86.5806706605 76.0720805489
8 19.3863057239 66.4843545677
9 92.9633674091 62.4746567417
10 14.8750677169 29.3081489656
11 4.5730758786 67.3191596338
12 56.6139727575 65.7771988055
13 55.8797521369 27.0712007459
14 84.3590417394 66.1914677018
15 21.2062783851 17.4598898253
16 86.4638754623 49.7249061876
17 41.6597003965 8.7882680861
18 81.8954604501 42.2309529332
19 70.1894346373 49.4373509972
20 57.1320455345 67.4649485641
21 12.6910244415 84.6401766228
22 67.0770052837 59.8387188158
EOF
